Route #1: 73 1 22 64 42 43 41 56 23 63 33
Route #2: 68 2 62 28 61 21 74 30 75
Route #3: 48 47 36 69 71 60 70 20 37 5 29 45
Route #4: 4 52 8 46 34 67
Route #5: 27 15 57 13 54 19 59 14 35 7 26
Route #6: 58 10 38 65 66 11 53
Route #7: 17 40 39 9 32 44 3 51
Route #8: 6 16 49 24 18 50 25 55 31 72 12
Cost 735
Time 0.592315
Tempo = 0.6035811999972793